p cnf 174 960
1 -73 0
1 -74 0
73 -73 0
74 -74 0
19 -79 0
19 -80 0
79 -79 0
80 -80 0
37 -85 0
37 -86 0
85 -85 0
86 -86 0
55 -91 0
55 -92 0
91 -91 0
92 -92 0
2 -73 0
2 -74 0
73 -73 0
74 -74 0
20 -79 0
20 -80 0
79 -79 0
80 -80 0
38 -85 0
38 -86 0
85 -85 0
86 -86 0
56 -91 0
56 -92 0
91 -91 0
92 -92 0
3 -73 0
3 -74 0
73 -73 0
74 -74 0
21 -79 0
21 -80 0
79 -79 0
80 -80 0
39 -85 0
39 -86 0
85 -85 0
86 -86 0
57 -91 0
57 -92 0
91 -91 0
92 -92 0
4 -73 0
4 -74 0
73 -73 0
74 -74 0
22 -79 0
22 -80 0
79 -79 0
80 -80 0
40 -85 0
40 -86 0
85 -85 0
86 -86 0
58 -91 0
58 -92 0
91 -91 0
92 -92 0
5 -73 0
5 -74 0
73 -73 0
74 -74 0
23 -79 0
23 -80 0
79 -79 0
80 -80 0
41 -85 0
41 -86 0
85 -85 0
86 -86 0
59 -91 0
59 -92 0
91 -91 0
92 -92 0
6 -97 -73 0
-6 97 -73 0
6 97 -74 0
-6 -97 -74 0
24 -97 -79 0
-24 97 -79 0
24 97 -80 0
-24 -97 -80 0
42 -97 -85 0
-42 97 -85 0
42 97 -86 0
-42 -97 -86 0
60 -97 -91 0
-60 97 -91 0
60 97 -92 0
-60 -97 -92 0
7 -73 0
7 -74 0
73 -73 0
74 -74 0
25 -79 0
25 -80 0
79 -79 0
80 -80 0
43 -85 0
43 -86 0
85 -85 0
86 -86 0
61 -91 0
61 -92 0
91 -91 0
92 -92 0
-8 -73 0
-8 -74 0
73 -73 0
74 -74 0
-26 -79 0
-26 -80 0
79 -79 0
80 -80 0
-44 -85 0
-44 -86 0
85 -85 0
86 -86 0
-62 -91 0
-62 -92 0
91 -91 0
92 -92 0
9 -73 0
9 -74 0
73 -73 0
74 -74 0
27 -79 0
27 -80 0
79 -79 0
80 -80 0
45 -85 0
45 -86 0
85 -85 0
86 -86 0
63 -91 0
63 -92 0
91 -91 0
92 -92 0
10 -73 0
10 -74 0
73 -73 0
74 -74 0
28 -79 0
28 -80 0
79 -79 0
80 -80 0
46 -85 0
46 -86 0
85 -85 0
86 -86 0
64 -91 0
64 -92 0
91 -91 0
92 -92 0
11 -73 0
11 -74 0
73 -73 0
74 -74 0
29 -79 0
29 -80 0
79 -79 0
80 -80 0
47 -85 0
47 -86 0
85 -85 0
86 -86 0
65 -91 0
65 -92 0
91 -91 0
92 -92 0
12 -73 0
12 -74 0
73 -73 0
74 -74 0
30 -79 0
30 -80 0
79 -79 0
80 -80 0
48 -85 0
48 -86 0
85 -85 0
86 -86 0
66 -91 0
66 -92 0
91 -91 0
92 -92 0
13 -73 0
13 -74 0
73 -73 0
74 -74 0
31 -79 0
31 -80 0
79 -79 0
80 -80 0
49 -85 0
49 -86 0
85 -85 0
86 -86 0
67 -91 0
67 -92 0
91 -91 0
92 -92 0
14 -73 0
14 -74 0
73 -73 0
74 -74 0
32 -79 0
32 -80 0
79 -79 0
80 -80 0
50 -85 0
50 -86 0
85 -85 0
86 -86 0
68 -91 0
68 -92 0
91 -91 0
92 -92 0
15 -73 0
15 -74 0
73 -73 0
74 -74 0
33 -79 0
33 -80 0
79 -79 0
80 -80 0
51 -85 0
51 -86 0
85 -85 0
86 -86 0
69 -91 0
69 -92 0
91 -91 0
92 -92 0
16 -73 0
16 -74 0
73 -73 0
74 -74 0
34 -79 0
34 -80 0
79 -79 0
80 -80 0
52 -85 0
52 -86 0
85 -85 0
86 -86 0
70 -91 0
70 -92 0
91 -91 0
92 -92 0
17 -73 0
17 -74 0
73 -73 0
74 -74 0
35 -79 0
35 -80 0
79 -79 0
80 -80 0
53 -85 0
53 -86 0
85 -85 0
86 -86 0
71 -91 0
71 -92 0
91 -91 0
92 -92 0
18 -73 0
18 -74 0
73 -73 0
74 -74 0
36 -79 0
36 -80 0
79 -79 0
80 -80 0
54 -85 0
54 -86 0
85 -85 0
86 -86 0
72 -91 0
72 -92 0
91 -91 0
92 -92 0
-151 73 0
151 -73 0
-152 74 0
151 -74 0
-151 -73 0
-152 -74 0
-157 73 151 0
157 -73 0
157 -151 0
-158 74 152 0
158 -74 0
158 -152 0
-157 -79 0
-158 -80 0
-163 79 157 0
163 -79 0
163 -157 0
-164 80 158 0
164 -80 0
164 -158 0
-163 -85 0
-164 -86 0
-169 85 163 0
169 -85 0
169 -163 0
-170 86 164 0
170 -86 0
170 -164 0
-169 -91 0
-170 -92 0
169 0
170 0
1 -98 -75 0
-1 98 -75 0
1 98 -76 0
-1 -98 -76 0
19 -98 -81 0
-19 98 -81 0
19 98 -82 0
-19 -98 -82 0
37 -98 -87 0
-37 98 -87 0
37 98 -88 0
-37 -98 -88 0
55 -98 -93 0
-55 98 -93 0
55 98 -94 0
-55 -98 -94 0
2 -75 0
2 -76 0
75 -75 0
76 -76 0
20 -81 0
20 -82 0
81 -81 0
82 -82 0
38 -87 0
38 -88 0
87 -87 0
88 -88 0
56 -93 0
56 -94 0
93 -93 0
94 -94 0
3 -75 0
3 -76 0
75 -75 0
76 -76 0
21 -81 0
21 -82 0
81 -81 0
82 -82 0
39 -87 0
39 -88 0
87 -87 0
88 -88 0
57 -93 0
57 -94 0
93 -93 0
94 -94 0
4 -75 0
4 -76 0
75 -75 0
76 -76 0
22 -81 0
22 -82 0
81 -81 0
82 -82 0
40 -87 0
40 -88 0
87 -87 0
88 -88 0
58 -93 0
58 -94 0
93 -93 0
94 -94 0
5 -75 0
5 -76 0
75 -75 0
76 -76 0
23 -81 0
23 -82 0
81 -81 0
82 -82 0
41 -87 0
41 -88 0
87 -87 0
88 -88 0
59 -93 0
59 -94 0
93 -93 0
94 -94 0
6 -99 -75 0
-6 99 -75 0
6 99 -76 0
-6 -99 -76 0
24 -99 -81 0
-24 99 -81 0
24 99 -82 0
-24 -99 -82 0
42 -99 -87 0
-42 99 -87 0
42 99 -88 0
-42 -99 -88 0
60 -99 -93 0
-60 99 -93 0
60 99 -94 0
-60 -99 -94 0
7 -75 0
7 -76 0
75 -75 0
76 -76 0
25 -81 0
25 -82 0
81 -81 0
82 -82 0
43 -87 0
43 -88 0
87 -87 0
88 -88 0
61 -93 0
61 -94 0
93 -93 0
94 -94 0
-8 -75 0
-8 -76 0
75 -75 0
76 -76 0
-26 -81 0
-26 -82 0
81 -81 0
82 -82 0
-44 -87 0
-44 -88 0
87 -87 0
88 -88 0
-62 -93 0
-62 -94 0
93 -93 0
94 -94 0
9 -75 0
9 -76 0
75 -75 0
76 -76 0
27 -81 0
27 -82 0
81 -81 0
82 -82 0
45 -87 0
45 -88 0
87 -87 0
88 -88 0
63 -93 0
63 -94 0
93 -93 0
94 -94 0
10 -100 -75 0
-10 100 -75 0
10 100 -76 0
-10 -100 -76 0
28 -100 -81 0
-28 100 -81 0
28 100 -82 0
-28 -100 -82 0
46 -100 -87 0
-46 100 -87 0
46 100 -88 0
-46 -100 -88 0
64 -100 -93 0
-64 100 -93 0
64 100 -94 0
-64 -100 -94 0
11 -101 -75 0
-11 101 -75 0
11 101 -76 0
-11 -101 -76 0
29 -101 -81 0
-29 101 -81 0
29 101 -82 0
-29 -101 -82 0
47 -101 -87 0
-47 101 -87 0
47 101 -88 0
-47 -101 -88 0
65 -101 -93 0
-65 101 -93 0
65 101 -94 0
-65 -101 -94 0
12 -75 0
12 -76 0
75 -75 0
76 -76 0
30 -81 0
30 -82 0
81 -81 0
82 -82 0
48 -87 0
48 -88 0
87 -87 0
88 -88 0
66 -93 0
66 -94 0
93 -93 0
94 -94 0
13 -75 0
13 -76 0
75 -75 0
76 -76 0
31 -81 0
31 -82 0
81 -81 0
82 -82 0
49 -87 0
49 -88 0
87 -87 0
88 -88 0
67 -93 0
67 -94 0
93 -93 0
94 -94 0
14 -102 -75 0
-14 102 -75 0
14 102 -76 0
-14 -102 -76 0
32 -102 -81 0
-32 102 -81 0
32 102 -82 0
-32 -102 -82 0
50 -102 -87 0
-50 102 -87 0
50 102 -88 0
-50 -102 -88 0
68 -102 -93 0
-68 102 -93 0
68 102 -94 0
-68 -102 -94 0
15 -103 -75 0
-15 103 -75 0
15 103 -76 0
-15 -103 -76 0
33 -103 -81 0
-33 103 -81 0
33 103 -82 0
-33 -103 -82 0
51 -103 -87 0
-51 103 -87 0
51 103 -88 0
-51 -103 -88 0
69 -103 -93 0
-69 103 -93 0
69 103 -94 0
-69 -103 -94 0
16 -75 0
16 -76 0
75 -75 0
76 -76 0
34 -81 0
34 -82 0
81 -81 0
82 -82 0
52 -87 0
52 -88 0
87 -87 0
88 -88 0
70 -93 0
70 -94 0
93 -93 0
94 -94 0
-17 -75 0
-17 -76 0
75 -75 0
76 -76 0
-35 -81 0
-35 -82 0
81 -81 0
82 -82 0
-53 -87 0
-53 -88 0
87 -87 0
88 -88 0
-71 -93 0
-71 -94 0
93 -93 0
94 -94 0
18 -75 0
18 -76 0
75 -75 0
76 -76 0
36 -81 0
36 -82 0
81 -81 0
82 -82 0
54 -87 0
54 -88 0
87 -87 0
88 -88 0
72 -93 0
72 -94 0
93 -93 0
94 -94 0
-153 75 0
153 -75 0
-154 76 0
153 -76 0
-153 -75 0
-154 -76 0
-159 75 153 0
159 -75 0
159 -153 0
-160 76 154 0
160 -76 0
160 -154 0
-159 -81 0
-160 -82 0
-165 81 159 0
165 -81 0
165 -159 0
-166 82 160 0
166 -82 0
166 -160 0
-165 -87 0
-166 -88 0
-171 87 165 0
171 -87 0
171 -165 0
-172 88 166 0
172 -88 0
172 -166 0
-171 -93 0
-172 -94 0
171 0
172 0
1 -77 0
1 -78 0
77 -77 0
78 -78 0
19 -83 0
19 -84 0
83 -83 0
84 -84 0
37 -89 0
37 -90 0
89 -89 0
90 -90 0
55 -95 0
55 -96 0
95 -95 0
96 -96 0
2 -77 0
2 -78 0
77 -77 0
78 -78 0
20 -83 0
20 -84 0
83 -83 0
84 -84 0
38 -89 0
38 -90 0
89 -89 0
90 -90 0
56 -95 0
56 -96 0
95 -95 0
96 -96 0
3 -77 0
3 -78 0
77 -77 0
78 -78 0
21 -83 0
21 -84 0
83 -83 0
84 -84 0
39 -89 0
39 -90 0
89 -89 0
90 -90 0
57 -95 0
57 -96 0
95 -95 0
96 -96 0
4 -77 0
4 -78 0
77 -77 0
78 -78 0
22 -83 0
22 -84 0
83 -83 0
84 -84 0
40 -89 0
40 -90 0
89 -89 0
90 -90 0
58 -95 0
58 -96 0
95 -95 0
96 -96 0
5 -77 0
5 -78 0
77 -77 0
78 -78 0
23 -83 0
23 -84 0
83 -83 0
84 -84 0
41 -89 0
41 -90 0
89 -89 0
90 -90 0
59 -95 0
59 -96 0
95 -95 0
96 -96 0
-6 -77 0
-6 -78 0
77 -77 0
78 -78 0
-24 -83 0
-24 -84 0
83 -83 0
84 -84 0
-42 -89 0
-42 -90 0
89 -89 0
90 -90 0
-60 -95 0
-60 -96 0
95 -95 0
96 -96 0
7 -77 0
7 -78 0
77 -77 0
78 -78 0
25 -83 0
25 -84 0
83 -83 0
84 -84 0
43 -89 0
43 -90 0
89 -89 0
90 -90 0
61 -95 0
61 -96 0
95 -95 0
96 -96 0
-8 -77 0
-8 -78 0
77 -77 0
78 -78 0
-26 -83 0
-26 -84 0
83 -83 0
84 -84 0
-44 -89 0
-44 -90 0
89 -89 0
90 -90 0
-62 -95 0
-62 -96 0
95 -95 0
96 -96 0
-9 -77 0
-9 -78 0
77 -77 0
78 -78 0
-27 -83 0
-27 -84 0
83 -83 0
84 -84 0
-45 -89 0
-45 -90 0
89 -89 0
90 -90 0
-63 -95 0
-63 -96 0
95 -95 0
96 -96 0
10 -77 0
10 -78 0
77 -77 0
78 -78 0
28 -83 0
28 -84 0
83 -83 0
84 -84 0
46 -89 0
46 -90 0
89 -89 0
90 -90 0
64 -95 0
64 -96 0
95 -95 0
96 -96 0
11 -104 -77 0
-11 104 -77 0
11 104 -78 0
-11 -104 -78 0
29 -104 -83 0
-29 104 -83 0
29 104 -84 0
-29 -104 -84 0
47 -104 -89 0
-47 104 -89 0
47 104 -90 0
-47 -104 -90 0
65 -104 -95 0
-65 104 -95 0
65 104 -96 0
-65 -104 -96 0
12 -77 0
12 -78 0
77 -77 0
78 -78 0
30 -83 0
30 -84 0
83 -83 0
84 -84 0
48 -89 0
48 -90 0
89 -89 0
90 -90 0
66 -95 0
66 -96 0
95 -95 0
96 -96 0
13 -77 0
13 -78 0
77 -77 0
78 -78 0
31 -83 0
31 -84 0
83 -83 0
84 -84 0
49 -89 0
49 -90 0
89 -89 0
90 -90 0
67 -95 0
67 -96 0
95 -95 0
96 -96 0
-14 -77 0
-14 -78 0
77 -77 0
78 -78 0
-32 -83 0
-32 -84 0
83 -83 0
84 -84 0
-50 -89 0
-50 -90 0
89 -89 0
90 -90 0
-68 -95 0
-68 -96 0
95 -95 0
96 -96 0
15 -105 -77 0
-15 105 -77 0
15 105 -78 0
-15 -105 -78 0
33 -105 -83 0
-33 105 -83 0
33 105 -84 0
-33 -105 -84 0
51 -105 -89 0
-51 105 -89 0
51 105 -90 0
-51 -105 -90 0
69 -105 -95 0
-69 105 -95 0
69 105 -96 0
-69 -105 -96 0
16 -77 0
16 -78 0
77 -77 0
78 -78 0
34 -83 0
34 -84 0
83 -83 0
84 -84 0
52 -89 0
52 -90 0
89 -89 0
90 -90 0
70 -95 0
70 -96 0
95 -95 0
96 -96 0
17 -106 -77 0
-17 106 -77 0
17 106 -78 0
-17 -106 -78 0
35 -106 -83 0
-35 106 -83 0
35 106 -84 0
-35 -106 -84 0
53 -106 -89 0
-53 106 -89 0
53 106 -90 0
-53 -106 -90 0
71 -106 -95 0
-71 106 -95 0
71 106 -96 0
-71 -106 -96 0
18 -77 0
18 -78 0
77 -77 0
78 -78 0
36 -83 0
36 -84 0
83 -83 0
84 -84 0
54 -89 0
54 -90 0
89 -89 0
90 -90 0
72 -95 0
72 -96 0
95 -95 0
96 -96 0
-155 77 0
155 -77 0
-156 78 0
155 -78 0
-155 -77 0
-156 -78 0
-161 77 155 0
161 -77 0
161 -155 0
-162 78 156 0
162 -78 0
162 -156 0
-161 -83 0
-162 -84 0
-167 83 161 0
167 -83 0
167 -161 0
-168 84 162 0
168 -84 0
168 -162 0
-167 -89 0
-168 -90 0
-173 89 167 0
173 -89 0
173 -167 0
-174 90 168 0
174 -90 0
174 -168 0
-173 -95 0
-174 -96 0
173 0
174 0
